p cnf 24 159
1 4 7 10 13 16 19 22 0
2 5 8 11 14 17 20 23 0
3 6 9 12 15 18 21 24 0
-1 -2 0
-1 -3 0
-2 -3 0
-4 -5 0
-4 -6 0
-5 -6 0
-7 -8 0
-7 -9 0
-8 -9 0
-10 -11 0
-10 -12 0
-11 -12 0
-13 -14 0
-13 -15 0
-14 -15 0
-16 -17 0
-16 -18 0
-17 -18 0
-19 -20 0
-19 -21 0
-20 -21 0
-22 -23 0
-22 -24 0
-23 -24 0
-1 -5 0
-1 -6 0
-2 -4 0
-2 -6 0
-3 -4 0
-3 -5 0
-1 -8 0
-1 -9 0
-2 -7 0
-2 -9 0
-3 -7 0
-3 -8 0
-1 -11 0
-1 -12 0
-2 -10 0
-2 -12 0
-3 -10 0
-3 -11 0
-1 -14 0
-1 -15 0
-2 -13 0
-2 -15 0
-3 -13 0
-3 -14 0
-1 -20 0
-1 -21 0
-2 -19 0
-2 -21 0
-3 -19 0
-3 -20 0
-1 -23 0
-1 -24 0
-2 -22 0
-2 -24 0
-3 -22 0
-3 -23 0
-4 -8 0
-4 -9 0
-5 -7 0
-5 -9 0
-6 -7 0
-6 -8 0
-4 -14 0
-4 -15 0
-5 -13 0
-5 -15 0
-6 -13 0
-6 -14 0
-4 -17 0
-4 -18 0
-5 -16 0
-5 -18 0
-6 -16 0
-6 -17 0
-4 -20 0
-4 -21 0
-5 -19 0
-5 -21 0
-6 -19 0
-6 -20 0
-7 -11 0
-7 -12 0
-8 -10 0
-8 -12 0
-9 -10 0
-9 -11 0
-7 -14 0
-7 -15 0
-8 -13 0
-8 -15 0
-9 -13 0
-9 -14 0
-7 -17 0
-7 -18 0
-8 -16 0
-8 -18 0
-9 -16 0
-9 -17 0
-7 -23 0
-7 -24 0
-8 -22 0
-8 -24 0
-9 -22 0
-9 -23 0
-10 -14 0
-10 -15 0
-11 -13 0
-11 -15 0
-12 -13 0
-12 -14 0
-10 -20 0
-10 -21 0
-11 -19 0
-11 -21 0
-12 -19 0
-12 -20 0
-10 -23 0
-10 -24 0
-11 -22 0
-11 -24 0
-12 -22 0
-12 -23 0
-13 -17 0
-13 -18 0
-14 -16 0
-14 -18 0
-15 -16 0
-15 -17 0
-13 -20 0
-13 -21 0
-14 -19 0
-14 -21 0
-15 -19 0
-15 -20 0
-13 -23 0
-13 -24 0
-14 -22 0
-14 -24 0
-15 -22 0
-15 -23 0
-16 -20 0
-16 -21 0
-17 -19 0
-17 -21 0
-18 -19 0
-18 -20 0
-19 -23 0
-19 -24 0
-20 -22 0
-20 -24 0
-21 -22 0
-21 -23 0
